NAME : 	X-n10	
COMMENT : 	"Generated by Uchoa, Pecin, Pessoa, Poggi, Subramanian, and Vidal (2013)"	
TYPE : 	CVRP	
DIMENSION : 	10	
EDGE_WEIGHT_TYPE : 	EUC_2D	
CAPACITY : 	99999999	
NODE_COORD_SECTION		
1	365	689
2	146	180
3	792	5
4	658	510
5	461	270
6	299	531
7	812	228
8	643	90
9	615	630
10	258	42
DEMAND_SECTION		
1	0	
2	38	
3	51	
4	73	
5	70	
6	58	
7	54	
8	1	
9	98	
10	62	
DEPOT_SECTION		
	1	
	-1	
EOF		
